NAME : SCA3-3.6800385.tour
COMMENT : Cost = 0_6800385
COMMENT : Found by LKH [Keld Helsgaun] Sat Sep  9 21:11:00 2017
TYPE : TOUR
DIMENSION : 54
TOUR_SECTION
1
34
21
4
40
33
16
39
41
49
30
14
45
50
29
17
53
47
5
37
8
32
36
22
43
10
12
18
20
54
48
23
44
46
31
25
52
9
42
13
27
38
3
35
6
15
24
51
28
11
26
19
2
7
-1
EOF
